; benchmark generated from python API
(set-info :status unknown)
(declare-fun x_month () Int)
(declare-fun x_year () Int)
(declare-fun x_day () Int)
(assert
 (let (($x1042 (or (= x_month 4) (= x_month 6) (= x_month 9) (= x_month 11))))
 (let ((?x969 (ite $x1042 30 31)))
 (let (($x401 (= (mod x_year 400) 0)))
 (let (($x645 (= (mod x_year 4) 0)))
 (let ((?x595 (ite (or (and $x645 (and (distinct (mod x_year 100) 0) true)) $x401) 29 28)))
 (let (($x566 (= x_month 2)))
 (let (($x583 (<= x_day (ite $x566 ?x595 ?x969))))
 (let (($x775 (>= x_day 1)))
 (let (($x1710 (<= x_month 2)))
 (let (($x1000 (>= x_month 1)))
 (let (($x525 (= x_year 2100)))
 (let (($x997 (<= x_month 12)))
 (let (($x992 (<= x_year 2099)))
 (let (($x1088 (>= x_year 1901)))
 (or (and (= x_year 1900) (>= x_month 3) $x997 $x775 $x583) (and $x1088 $x992 $x1000 $x997 $x775 $x583) (and $x525 $x1000 $x1710 $x775 $x583)))))))))))))))))
(assert
 (let (($x873 (= x_year 2023)))
 (let (($x470 (and $x873 (or (> x_month 1) (and (= x_month 1) (>= x_day 31))))))
 (or (> x_year 2023) $x470))))
(assert
 (let ((?x755 (+ (mod (- (+ x_month (+ (* 0 12) 1)) 1) 12) 1)))
(let ((?x766 (ite (or (= ?x755 4) (= ?x755 6) (= ?x755 9) (= ?x755 11)) 30 31)))
(let ((?x573 (+ 0 (div (- (+ x_month (+ (* 0 12) 1)) 1) 12))))
(let ((?x486 (+ x_year ?x573)))
(let (($x865 (or (and (= (mod ?x486 4) 0) (and (distinct (mod ?x486 100) 0) true)) (= (mod ?x486 400) 0))))
(let ((?x1012 (ite (= ?x755 2) (ite $x865 29 28) ?x766)))
(let ((?x824 (ite (< x_day 1) 1 (ite (> x_day ?x1012) ?x1012 x_day))))
(let ((?x783 (ite (< ?x824 1) 1 (ite (> ?x824 ?x1012) ?x1012 ?x824))))
(let ((?x481 (ite (= 2 ?x755) (ite $x865 31 31) (ite (= 1 ?x755) (ite $x865 0 0) 0))))
(let ((?x632 (ite (= 4 ?x755) (ite $x865 91 90) (ite (= 3 ?x755) (ite $x865 60 59) ?x481))))
(let ((?x569 (ite (= 6 ?x755) (ite $x865 152 151) (ite (= 5 ?x755) (ite $x865 121 120) ?x632))))
(let ((?x818 (ite (= 8 ?x755) (ite $x865 213 212) (ite (= 7 ?x755) (ite $x865 182 181) ?x569))))
(let ((?x847 (ite (= 10 ?x755) (ite $x865 274 273) (ite (= 9 ?x755) (ite $x865 244 243) ?x818))))
(let ((?x1054 (ite (= 12 ?x755) (ite $x865 335 334) (ite (= 11 ?x755) (ite $x865 305 304) ?x847))))
(let ((?x405 (- (+ (* 365 (- ?x486 1)) (div (- ?x486 1) 4)) (div (- ?x486 1) 100))))
(let ((?x827 (- (+ (+ (+ ?x405 (div (- ?x486 1) 400)) ?x1054) (- ?x783 1)) 730179)))
(let ((?x477 (+ (+ ?x827 0) 730179)))
(let ((?x874 (mod ?x477 146097)))
(let ((?x1037 (div ?x874 36524)))
(let ((?x513 (ite (<= 4 ?x1037) 3 ?x1037)))
(let ((?x605 (- ?x874 (* ?x513 36524))))
(let ((?x518 (mod ?x605 1461)))
(let ((?x574 (div ?x518 365)))
(let ((?x914 (ite (<= 4 ?x574) 3 ?x574)))
(let ((?x1020 (+ (+ (* (div ?x477 146097) 400) (* ?x513 100)) (* (div ?x605 1461) 4))))
(let ((?x1056 (+ (+ ?x1020 ?x914) 1)))
(let (($x1122 (or (and (= (mod ?x1056 4) 0) (and (distinct (mod ?x1056 100) 0) true)) (= (mod ?x1056 400) 0))))
(let ((?x707 (- ?x518 (* ?x914 365))))
(let ((?x1062 (ite $x1122 31 31)))
(let (($x868 (>= ?x707 ?x1062)))
(let ((?x889 (ite $x868 (+ (- ?x707 ?x1062) 1) (+ (- ?x707 (ite $x1122 0 0)) 1))))
(let ((?x1101 (ite $x1122 60 59)))
(let (($x694 (>= ?x707 ?x1101)))
(let ((?x1059 (ite $x1122 91 90)))
(let (($x965 (>= ?x707 ?x1059)))
(let ((?x890 (ite $x965 (+ (- ?x707 ?x1059) 1) (ite $x694 (+ (- ?x707 ?x1101) 1) ?x889))))
(let ((?x545 (ite $x1122 121 120)))
(let (($x956 (>= ?x707 ?x545)))
(let ((?x672 (ite $x1122 152 151)))
(let (($x902 (>= ?x707 ?x672)))
(let ((?x926 (ite $x902 (+ (- ?x707 ?x672) 1) (ite $x956 (+ (- ?x707 ?x545) 1) ?x890))))
(let ((?x473 (ite $x1122 182 181)))
(let (($x714 (>= ?x707 ?x473)))
(let ((?x546 (ite $x1122 213 212)))
(let (($x456 (>= ?x707 ?x546)))
(let ((?x932 (ite $x456 (+ (- ?x707 ?x546) 1) (ite $x714 (+ (- ?x707 ?x473) 1) ?x926))))
(let ((?x520 (ite $x1122 244 243)))
(let (($x695 (>= ?x707 ?x520)))
(let ((?x596 (ite $x1122 274 273)))
(let (($x701 (>= ?x707 ?x596)))
(let ((?x426 (ite $x701 (+ (- ?x707 ?x596) 1) (ite $x695 (+ (- ?x707 ?x520) 1) ?x932))))
(let ((?x406 (ite $x1122 305 304)))
(let (($x938 (>= ?x707 ?x406)))
(let ((?x1090 (ite $x1122 335 334)))
(let (($x460 (>= ?x707 ?x1090)))
(let ((?x803 (ite $x460 (+ (- ?x707 ?x1090) 1) (ite $x938 (+ (- ?x707 ?x406) 1) ?x426))))
(let (($x608 (= 0 0)))
(let ((?x894 (ite $x956 5 (ite $x965 4 (ite $x694 3 (ite $x868 2 1))))))
(let ((?x711 (ite $x695 9 (ite $x456 8 (ite $x714 7 (ite $x902 6 ?x894))))))
(let ((?x713 (ite $x608 ?x755 (ite $x460 12 (ite $x938 11 (ite $x701 10 ?x711))))))
(let (($x893 (or (< ?x713 3) (and (= ?x713 3) (<= (ite $x608 ?x783 ?x803) 1)))))
(or (< (ite $x608 ?x486 ?x1056) 2023) (and (= (ite $x608 ?x486 ?x1056) 2023) $x893))))))))))))))))))))))))))))))))))))))))))))))))))))))))))))))))
(check-sat)
